size = 5;
tiles = 5;
expressions = [
    "( ([2 3 4 5 6]* 1{5}  [2 3 4 5 6]*) | ([2 3 4 5 6]* 1{1} [2 3 4 5 6]{4} [2 3 4 5 6] 1{1} [2 3 4 5 6]{4} [2 3 4 5 6] 1{1} [2 3 4 5 6]{4} [2 3 4 5 6] 1{1} [2 3 4 5 6]{4} [2 3 4 5 6] 1{1}  [2 3 4 5 6]*) | ([2 3 4 5 6]* 1{5}  [2 3 4 5 6]*) | ([2 3 4 5 6]* 1{1} [2 3 4 5 6] [2 3 4 5 6]{4} 1{1} [2 3 4 5 6] [2 3 4 5 6]{4} 1{1} [2 3 4 5 6] [2 3 4 5 6]{4} 1{1} [2 3 4 5 6] [2 3 4 5 6]{4} 1{1}  [2 3 4 5 6]*) | ([2 3 4 5 6]* 1{5}  [2 3 4 5 6]*) | ([2 3 4 5 6]* 1{1} [2 3 4 5 6] [2 3 4 5 6]{4} 1{1} [2 3 4 5 6] [2 3 4 5 6]{4} 1{1} [2 3 4 5 6] [2 3 4 5 6]{4} 1{1} [2 3 4 5 6] [2 3 4 5 6]{4} 1{1}  [2 3 4 5 6]*) | ([2 3 4 5 6]* 1{5}  [2 3 4 5 6]*) | ([2 3 4 5 6]* 1{1} [2 3 4 5 6]{4} [2 3 4 5 6] 1{1} [2 3 4 5 6]{4} [2 3 4 5 6] 1{1} [2 3 4 5 6]{4} [2 3 4 5 6] 1{1} [2 3 4 5 6]{4} [2 3 4 5 6] 1{1}  [2 3 4 5 6]*) )",
    "( ([1 3 4 5 6]* 2{1}  [1 3 4 5 6]*) | ([1 3 4 5 6]* 2{1}  [1 3 4 5 6]*) | ([1 3 4 5 6]* 2{1}  [1 3 4 5 6]*) | ([1 3 4 5 6]* 2{1}  [1 3 4 5 6]*) | ([1 3 4 5 6]* 2{1}  [1 3 4 5 6]*) | ([1 3 4 5 6]* 2{1}  [1 3 4 5 6]*) | ([1 3 4 5 6]* 2{1}  [1 3 4 5 6]*) | ([1 3 4 5 6]* 2{1}  [1 3 4 5 6]*) )",
    "( ([1 2 4 5 6]* 3{2} [1 2 4 5 6] [1 2 4 5 6]{3} 3{2}  [1 2 4 5 6]*) | ([1 2 4 5 6]* 3{2} [1 2 4 5 6]{2} [1 2 4 5 6] [1 2 4 5 6]{1} 3{2}  [1 2 4 5 6]*) | ([1 2 4 5 6]* 3{2} [1 2 4 5 6]{3} [1 2 4 5 6] 3{2}  [1 2 4 5 6]*) | ([1 2 4 5 6]* 3{2} [1 2 4 5 6]{1} [1 2 4 5 6] [1 2 4 5 6]{2} 3{2}  [1 2 4 5 6]*) | ([1 2 4 5 6]* 3{2} [1 2 4 5 6]{3} [1 2 4 5 6] 3{2}  [1 2 4 5 6]*) | ([1 2 4 5 6]* 3{2} [1 2 4 5 6]{1} [1 2 4 5 6] [1 2 4 5 6]{2} 3{2}  [1 2 4 5 6]*) | ([1 2 4 5 6]* 3{2} [1 2 4 5 6] [1 2 4 5 6]{3} 3{2}  [1 2 4 5 6]*) | ([1 2 4 5 6]* 3{2} [1 2 4 5 6]{2} [1 2 4 5 6] [1 2 4 5 6]{1} 3{2}  [1 2 4 5 6]*) )",
    "( ([1 2 3 5 6]* 4{4} [1 2 3 5 6] [1 2 3 5 6]{1} 4{4} [1 2 3 5 6] [1 2 3 5 6]{2} 4{1}  [1 2 3 5 6]*) | ([1 2 3 5 6]* 4{2} [1 2 3 5 6] [1 2 3 5 6]{2} 4{3} [1 2 3 5 6] [1 2 3 5 6]{3} 4{2} [1 2 3 5 6] [1 2 3 5 6]{3} 4{2}  [1 2 3 5 6]*) | ([1 2 3 5 6]* 4{1} [1 2 3 5 6]{2} [1 2 3 5 6] 4{4} [1 2 3 5 6]{1} [1 2 3 5 6] 4{4}  [1 2 3 5 6]*) | ([1 2 3 5 6]* 4{2} [1 2 3 5 6]{3} [1 2 3 5 6] 4{2} [1 2 3 5 6]{3} [1 2 3 5 6] 4{3} [1 2 3 5 6]{2} [1 2 3 5 6] 4{2}  [1 2 3 5 6]*) | ([1 2 3 5 6]* 4{4} [1 2 3 5 6]{1} [1 2 3 5 6] 4{4} [1 2 3 5 6]{1} [1 2 3 5 6] [1 2 3 5 6]{2} 4{1}  [1 2 3 5 6]*) | ([1 2 3 5 6]* 4{2} [1 2 3 5 6]{3} [1 2 3 5 6] 4{3} [1 2 3 5 6]{2} [1 2 3 5 6] 4{2} [1 2 3 5 6]{3} [1 2 3 5 6] 4{2}  [1 2 3 5 6]*) | ([1 2 3 5 6]* 4{1} [1 2 3 5 6]{2} [1 2 3 5 6] [1 2 3 5 6]{1} 4{4} [1 2 3 5 6] [1 2 3 5 6]{1} 4{4}  [1 2 3 5 6]*) | ([1 2 3 5 6]* 4{2} [1 2 3 5 6] [1 2 3 5 6]{3} 4{2} [1 2 3 5 6] [1 2 3 5 6]{2} 4{3} [1 2 3 5 6] [1 2 3 5 6]{3} 4{2}  [1 2 3 5 6]*) )",
    "( ([1 2 3 4 6]* 5{1} [1 2 3 4 6]{4} [1 2 3 4 6] 5{1} [1 2 3 4 6]{4} [1 2 3 4 6] 5{2} [1 2 3 4 6]{3} [1 2 3 4 6] 5{2}  [1 2 3 4 6]*) | ([1 2 3 4 6]* 5{4} [1 2 3 4 6] [1 2 3 4 6]{1} 5{2}  [1 2 3 4 6]*) | ([1 2 3 4 6]* 5{2} [1 2 3 4 6] [1 2 3 4 6]{3} 5{2} [1 2 3 4 6] [1 2 3 4 6]{4} 5{1} [1 2 3 4 6] [1 2 3 4 6]{4} 5{1}  [1 2 3 4 6]*) | ([1 2 3 4 6]* 5{2} [1 2 3 4 6]{1} [1 2 3 4 6] 5{4}  [1 2 3 4 6]*) | ([1 2 3 4 6]* 5{1} [1 2 3 4 6] [1 2 3 4 6]{4} 5{1} [1 2 3 4 6] [1 2 3 4 6]{3} 5{2} [1 2 3 4 6] [1 2 3 4 6]{3} 5{2}  [1 2 3 4 6]*) | ([1 2 3 4 6]* 5{4} [1 2 3 4 6]{1} [1 2 3 4 6] [1 2 3 4 6]{2} 5{2}  [1 2 3 4 6]*) | ([1 2 3 4 6]* 5{2} [1 2 3 4 6]{3} [1 2 3 4 6] 5{2} [1 2 3 4 6]{3} [1 2 3 4 6] 5{1} [1 2 3 4 6]{4} [1 2 3 4 6] 5{1}  [1 2 3 4 6]*) | ([1 2 3 4 6]* 5{2} [1 2 3 4 6]{2} [1 2 3 4 6] [1 2 3 4 6]{1} 5{4}  [1 2 3 4 6]*) )",
];
